inputs/tmp.lp
MIN
OBJ:  +1.0000000000000000 th0_0  +1.0000000000000000 th0_1  +1.0000000000000000 th0_2 

SUBJECT TO
SF00000001:  -1.0000000000000000 th0_0  -0.7131782945736435 th0_1  -0.8217054263565892 th0_2  +1.0000000000000000 th1_0  +0.7131782945736435 th1_1  +0.8217054263565892 th1_2 =  -0.0000000000000000
SF00000002:  -1.0000000000000000 th0_0  -9.5384615384615383 th0_1  -6.3076923076923075 th0_2  +1.0000000000000000 th2_0  +9.5384615384615383 th2_1  +6.3076923076923075 th2_2 =  -0.0000000000000000
SF00000003:  -1.0000000000000000 th1_0  -0.6528925619834711 th1_1  -1.0082644628099173 th1_2  +1.0000000000000000 th3_0  +0.6528925619834711 th3_1  +1.0082644628099173 th3_2 =  -0.0000000000000000
SF00000004:  -1.0000000000000000 th1_0  -0.6343283582089553 th1_1  -0.8507462686567164 th1_2  +1.0000000000000000 th4_0  +0.6343283582089553 th4_1  +0.8507462686567164 th4_2 =  -0.0000000000000000
SF00000005:  -1.0000000000000000 th1_0  -0.8484848484848485 th1_1  -0.6212121212121212 th1_2  +1.0000000000000000 th5_0  +0.8484848484848485 th5_1  +0.6212121212121212 th5_2 =  -0.0909090909090909
SF00000006:  -1.0000000000000000 th2_0  -9.5384615384615383 th2_1  -6.3076923076923075 th2_2  +1.0000000000000000 th6_0  +9.5384615384615383 th6_1  +6.3076923076923075 th6_2 =  -1.8461538461538463

NN00000001:  +1.0000000000000000 th3_0  +0.6528925619834711 th3_1  +1.0082644628099173 th3_2 >= 0
NN00000002:  +1.0000000000000000 th4_0  +0.6343283582089553 th4_1  +0.8507462686567164 th4_2 >= 0
NN00000003:  +1.0000000000000000 th5_0  +0.8484848484848485 th5_1  +0.6212121212121212 th5_2 >= 0
NN00000004:  +1.0000000000000000 th6_0  +9.5384615384615383 th6_1  +6.3076923076923075 th6_2 >= 0

BOUNDS
th0_0 free
th0_1 free
th0_2 free
th1_0 free
th1_1 free
th1_2 free
th2_0 free
th2_1 free
th2_2 free
th3_0 free
th3_1 free
th3_2 free
th4_0 free
th4_1 free
th4_2 free
th5_0 free
th5_1 free
th5_2 free
th6_0 free
th6_1 free
th6_2 free

END
